
  22   10
  10   10   10   10   10   10   10   10   10   10

   0   0   0   0   0   0   0   0   0   0   0   2 2 4 
   7  10   0   0   0   0   0   0   0   0   0   2 7 3 
   5   0   0   0   0   0   0   0   0   0  10   1 5 
  10   0   0   0   0   0  10   0   0   0   0   1 5 
   1   0   0  10   0   0   0   0   0   0   0   2 8 6 
   6   0   0   0  10   0   0   0   0   0   0   4 13 12 11 9 
   5   0  10   0   0   0   0   0   0   0   0   3 13 10 8 
   3   0   0   0   0   0   0  10   0   0   0   3 15 12 11 
   8   0   0   0  10   0   0   0   0   0   0   2 15 10 
   6  10   0   0   0   0   0   0   0   0   0   2 21 14 
  10   0   0   0   0   0   0   0  10   0   0   2 21 14 
   5  10   0   0   0   0   0   0   0   0   0   2 20 14 
   4   0  10   0   0   0   0   0   0   0   0   2 20 14 
   1   0   0   0  10   0   0   0   0   0   0   2 19 16 
   7   0   0   0   0   0   0   0  10   0   0   3 20 19 18 
   7  10   0   0   0   0   0   0   0   0   0   1 17 
   3  10   0   0   0   0   0   0   0   0   0   1 18 
   4   0   0   0   0   0   0   0   0   0  10   1 22
   7   0   0   0   0  10   0   0   0   0   0   1 22
   5   0   0   0   0  10   0   0   0   0   0   1 22
   3  10   0   0   0   0   0   0   0   0   0   1 22
   0   0   0   0   0   0   0   0   0   0   0   0 
